4 5 1.0 0 0 0 0 4104 4104
0 0 1 1 0
0 0 5 -1 1 2 20 -1 1 3 12 -1 1 1 18 -1 1 5 6 -1 1 4 16 
0 0 5 -1 1 5 13 -1 1 1 9 -1 1 2 11 -1 1 4 9 -1 1 3 20 
0 0 5 -1 1 2 18 -1 1 3 6 -1 1 4 12 -1 1 1 17 -1 1 5 6 
0 0 5 -1 1 4 15 -1 1 1 8 -1 1 3 16 -1 1 2 13 -1 1 5 7 
